
Gurobi 9.5.2 (win64) logging started Tue Jun 11 14:26:39 2024

Set parameter LogFile to value "./ccga_results/2024-06-11 14-26-37-29/MSP_TimeStampConvert_gurobi_log.txt"
Set parameter TimeLimit to value 35998

Gurobi 9.5.2 (win64) logging started Tue Jun 11 14:26:39 2024

Set parameter LogFile to value "./ccga_results/2024-06-11 14-26-37-29/MSP_TimeStampConvert_gurobi_log.txt"
Set parameter TimeLimit to value 35998
Gurobi Optimizer version 9.5.2 build v9.5.2rc0 (win64)
Thread count: 10 physical cores, 20 logical processors, using up to 20 threads
Optimize a model with 150 rows, 115 columns and 366 nonzeros
Model fingerprint: 0xf298787e
Variable types: 7 continuous, 108 integer (108 binary)
Coefficient statistics:
  Matrix range     [1e+00, 1e+00]
  Objective range  [1e+00, 1e+00]
  Bounds range     [1e+03, 1e+03]
  RHS range        [1e+00, 1e+00]
Found heuristic solution: objective 6000.0000000

Explored 0 nodes (0 simplex iterations) in 0.00 seconds (0.00 work units)
Thread count was 1 (of 20 available processors)

Solution count 1: 6000 

Optimal solution found (tolerance 1.00e-02)
Best objective 6.000000000000e+03, best bound 6.000000000000e+03, gap 0.0000%

User-callback calls 21, time in user-callback 0.00 sec
Gurobi Optimizer version 9.5.2 build v9.5.2rc0 (win64)
Thread count: 10 physical cores, 20 logical processors, using up to 20 threads
Optimize a model with 541 rows, 241 columns and 1637 nonzeros
Model fingerprint: 0x9268b983
Variable types: 121 continuous, 120 integer (120 binary)
Coefficient statistics:
  Matrix range     [1e-02, 5e+03]
  Objective range  [1e+00, 1e+00]
  Bounds range     [1e+03, 1e+03]
  RHS range        [1e+00, 2e+03]

MIP start from previous solve did not produce a new incumbent solution

Presolve removed 323 rows and 101 columns
Presolve time: 0.00s
Presolved: 218 rows, 140 columns, 813 nonzeros
Variable types: 60 continuous, 80 integer (80 binary)
Found heuristic solution: objective 5341.1111111

Root relaxation: objective 6.000000e+03, 39 iterations, 0.00 seconds (0.00 work units)

    Nodes    |    Current Node    |     Objective Bounds      |     Work
 Expl Unexpl |  Obj  Depth IntInf | Incumbent    BestBd   Gap | It/Node Time

     0     0 6000.00000    0    5 5341.11111 6000.00000  12.3%     -    0s
H    0     0                    6000.0000000 6000.00000  0.00%     -    0s
     0     0 6000.00000    0    5 6000.00000 6000.00000  0.00%     -    0s

Explored 1 nodes (39 simplex iterations) in 0.00 seconds (0.00 work units)
Thread count was 20 (of 20 available processors)

Solution count 2: 6000 5341.11 

Optimal solution found (tolerance 1.00e-02)
Best objective 6.000000000000e+03, best bound 6.000000000000e+03, gap 0.0000%

User-callback calls 642, time in user-callback 0.00 sec
Gurobi Optimizer version 9.5.2 build v9.5.2rc0 (win64)
Thread count: 10 physical cores, 20 logical processors, using up to 20 threads
Optimize a model with 932 rows, 367 columns and 2908 nonzeros
Model fingerprint: 0x8daf1abd
Variable types: 235 continuous, 132 integer (132 binary)
Coefficient statistics:
  Matrix range     [1e-02, 5e+03]
  Objective range  [1e+00, 1e+00]
  Bounds range     [1e+03, 1e+03]
  RHS range        [1e+00, 2e+03]

MIP start from previous solve did not produce a new incumbent solution

Presolve removed 596 rows and 173 columns
Presolve time: 0.00s
Presolved: 336 rows, 194 columns, 1376 nonzeros
Variable types: 114 continuous, 80 integer (80 binary)
Found heuristic solution: objective 5002.2222222
Found heuristic solution: objective 5050.0000000

Root relaxation: objective 6.000000e+03, 188 iterations, 0.00 seconds (0.00 work units)

    Nodes    |    Current Node    |     Objective Bounds      |     Work
 Expl Unexpl |  Obj  Depth IntInf | Incumbent    BestBd   Gap | It/Node Time

H    0     0                    6000.0000000 6000.00000  0.00%     -    0s
     0     0 6000.00000    0    2 6000.00000 6000.00000  0.00%     -    0s

Explored 1 nodes (266 simplex iterations) in 0.00 seconds (0.01 work units)
Thread count was 20 (of 20 available processors)

Solution count 3: 6000 5050 5002.22 

Optimal solution found (tolerance 1.00e-02)
Best objective 6.000000000000e+03, best bound 6.000000000000e+03, gap 0.0000%

User-callback calls 673, time in user-callback 0.00 sec
Set parameter TimeLimit to value 35997
Gurobi Optimizer version 9.5.2 build v9.5.2rc0 (win64)
Thread count: 10 physical cores, 20 logical processors, using up to 20 threads
Optimize a model with 1323 rows, 493 columns and 4179 nonzeros
Model fingerprint: 0xc8dce739
Variable types: 349 continuous, 144 integer (144 binary)
Coefficient statistics:
  Matrix range     [1e-02, 5e+03]
  Objective range  [1e+00, 1e+00]
  Bounds range     [1e+03, 1e+03]
  RHS range        [1e+00, 2e+03]

MIP start from previous solve produced solution with objective 5815 (0.00s)
Loaded MIP start from previous solve with objective 5815

Presolve removed 905 rows and 254 columns
Presolve time: 0.00s
Presolved: 418 rows, 239 columns, 1807 nonzeros
Variable types: 168 continuous, 71 integer (71 binary)

Root relaxation: objective 6.000000e+03, 199 iterations, 0.00 seconds (0.00 work units)

    Nodes    |    Current Node    |     Objective Bounds      |     Work
 Expl Unexpl |  Obj  Depth IntInf | Incumbent    BestBd   Gap | It/Node Time

*    0     0               0    6000.0000000 6000.00000  0.00%     -    0s

Explored 1 nodes (238 simplex iterations) in 0.02 seconds (0.01 work units)
Thread count was 20 (of 20 available processors)

Solution count 2: 6000 5815 

Optimal solution found (tolerance 1.00e-02)
Best objective 6.000000000000e+03, best bound 6.000000000000e+03, gap 0.0000%

User-callback calls 759, time in user-callback 0.00 sec
Gurobi Optimizer version 9.5.2 build v9.5.2rc0 (win64)
Thread count: 10 physical cores, 20 logical processors, using up to 20 threads
Optimize a model with 1714 rows, 619 columns and 5450 nonzeros
Model fingerprint: 0x455bfa74
Variable types: 463 continuous, 156 integer (156 binary)
Coefficient statistics:
  Matrix range     [1e-02, 5e+03]
  Objective range  [1e+00, 1e+00]
  Bounds range     [1e+03, 1e+03]
  RHS range        [1e+00, 2e+03]

MIP start from previous solve produced solution with objective 5925 (0.00s)
Loaded MIP start from previous solve with objective 5925

Presolve removed 1186 rows and 326 columns
Presolve time: 0.00s
Presolved: 528 rows, 293 columns, 2336 nonzeros
Variable types: 222 continuous, 71 integer (71 binary)

Root relaxation: objective 6.000000e+03, 228 iterations, 0.02 seconds (0.00 work units)

    Nodes    |    Current Node    |     Objective Bounds      |     Work
 Expl Unexpl |  Obj  Depth IntInf | Incumbent    BestBd   Gap | It/Node Time

H    0     0                    6000.0000000 6000.00000  0.00%     -    0s
     0     0 6000.00000    0   23 6000.00000 6000.00000  0.00%     -    0s

Explored 1 nodes (228 simplex iterations) in 0.02 seconds (0.02 work units)
Thread count was 20 (of 20 available processors)

Solution count 2: 6000 5925 

Optimal solution found (tolerance 1.00e-02)
Best objective 6.000000000000e+03, best bound 6.000000000000e+03, gap 0.0000%

User-callback calls 763, time in user-callback 0.00 sec
